<number of tasks>
100

<cycle time>
1000

<order strength>
0.603


<task times>
1 236
2 91
3 223
4 188
5 337
6 291
7 244
8 40
9 57
10 41
11 180
12 262
13 160
14 245
15 88
16 76
17 121
18 152
19 35
20 134
21 154
22 223
23 226
24 167
25 171
26 248
27 72
28 229
29 111
30 197
31 241
32 59
33 101
34 142
35 235
36 122
37 166
38 90
39 222
40 137
41 44
42 102
43 27
44 97
45 135
46 53
47 157
48 207
49 308
50 151
51 216
52 107
53 79
54 147
55 91
56 133
57 116
58 70
59 28
60 94
61 217
62 167
63 120
64 57
65 173
66 108
67 248
68 119
69 117
70 219
71 264
72 130
73 222
74 58
75 100
76 171
77 264
78 277
79 78
80 218
81 102
82 157
83 64
84 169
85 121
86 136
87 241
88 46
89 26
90 189
91 163
92 104
93 22
94 94
95 125
96 30
97 161
98 107
99 191
100 247

<precedence relations>
1,5
2,6
3,7
3,8
3,9
3,10
3,11
4,7
4,8
4,9
4,10
4,11
5,12
6,13
7,13
7,16
8,13
8,14
8,15
8,21
9,13
9,14
9,17
10,13
10,14
11,13
11,15
11,16
11,17
12,18
13,19
14,20
14,22
15,19
16,19
16,20
16,21
17,19
17,20
17,21
17,22
18,24
19,23
19,24
19,25
20,26
21,24
22,24
22,25
23,28
24,29
24,32
25,27
25,31
25,42
26,29
26,30
26,31
26,50
27,33
28,34
29,35
29,36
30,35
31,36
31,77
32,42
32,50
33,40
34,39
35,37
35,41
35,42
35,46
36,38
36,41
36,51
36,59
36,60
37,43
38,44
39,46
40,45
41,52
41,80
42,47
42,59
43,48
44,49
45,50
46,52
46,66
47,51
47,53
48,54
49,57
50,55
50,59
50,60
50,67
51,56
51,73
51,74
53,58
53,60
54,61
55,62
56,63
57,65
58,64
58,66
58,67
58,79
58,80
58,82
59,66
60,68
60,72
61,70
62,72
63,72
64,71
65,72
66,69
66,87
67,73
67,74
67,77
68,78
68,79
68,80
68,85
69,75
70,76
71,77
72,79
72,80
72,82
73,81
73,98
74,78
75,85
76,83
77,84
77,87
78,86
79,86
80,92
80,96
80,99
81,96
83,89
84,91
85,90
85,93
85,96
86,88
86,93
87,92
88,94
89,96
90,95
91,96
92,97
92,100
93,98
93,99

<end>
